(set-logic QF_LRA)
(declare-fun fluent_ready_i2_t0@1 () Bool)
(declare-fun fluent_ready_i0_t1@1 () Bool)
(declare-fun fluent_ready_i1_t1@1 () Bool)
(declare-fun fluent_ready_i2_t1@1 () Bool)
(declare-fun fluent_ready_i0_t2@1 () Bool)
(declare-fun fluent_ready_i1_t2@1 () Bool)
(declare-fun fluent_ready_i2_t2@1 () Bool)
(declare-fun fluent_started_i0_t0@0 () Bool)
(declare-fun fluent_started_i1_t0@0 () Bool)
(declare-fun fluent_started_i2_t0@0 () Bool)
(declare-fun fluent_started_i0_t1@0 () Bool)
(declare-fun fluent_started_i1_t1@0 () Bool)
(declare-fun fluent_started_i2_t1@0 () Bool)
(declare-fun fluent_started_i0_t2@0 () Bool)
(declare-fun act_make_treatment@1 () Bool)
(declare-fun fluent_ready_i0_t0@0 () Bool)
(declare-fun fluent_ready_i1_t0@0 () Bool)
(declare-fun fluent_ready_i2_t0@0 () Bool)
(declare-fun fluent_ready_i0_t1@0 () Bool)
(declare-fun fluent_ready_i1_t1@0 () Bool)
(declare-fun fluent_ready_i2_t1@0 () Bool)
(declare-fun fluent_ready_i0_t2@0 () Bool)
(declare-fun fluent_ready_i1_t2@0 () Bool)
(declare-fun fluent_ready_i2_t2@0 () Bool)
(declare-fun fluent_started_i1_t2@0 () Bool)
(declare-fun fluent_started_i2_t2@0 () Bool)
(declare-fun fluent_busy_@0 () Bool)
(declare-fun fluent_treated_i0_t0@0 () Bool)
(declare-fun fluent_treated_i1_t0@0 () Bool)
(declare-fun fluent_treated_i2_t0@0 () Bool)
(declare-fun fluent_treated_i0_t1@0 () Bool)
(declare-fun fluent_treated_i1_t1@0 () Bool)
(declare-fun fluent_treated_i2_t1@0 () Bool)
(declare-fun fluent_treated_i0_t2@0 () Bool)
(declare-fun fluent_treated_i1_t2@0 () Bool)
(declare-fun fluent_treated_i2_t2@0 () Bool)
(declare-fun fluent_counter_t0@0 () Real)
(declare-fun fluent_counter_t1@0 () Real)
(declare-fun fluent_counter_t2@0 () Real)
(declare-fun dur_make_treatment@1 () Real)
(declare-fun t@1 () Real)
(declare-fun parameter_make_treatment_t@1 () Real)
(declare-fun parameter_make_treatment_i@1 () Real)
(declare-fun parameter_make_treatment_next@1 () Real)
(declare-fun fluent_counter_t0@1 () Real)
(declare-fun fluent_counter_t1@1 () Real)
(declare-fun fluent_counter_t2@1 () Real)
(declare-fun fluent_busy_@1 () Bool)
(declare-fun fluent_started_i0_t0@1 () Bool)
(declare-fun fluent_started_i1_t0@1 () Bool)
(declare-fun fluent_started_i2_t0@1 () Bool)
(declare-fun fluent_started_i0_t1@1 () Bool)
(declare-fun fluent_started_i1_t1@1 () Bool)
(declare-fun fluent_started_i2_t1@1 () Bool)
(declare-fun fluent_started_i0_t2@1 () Bool)
(declare-fun fluent_started_i1_t2@1 () Bool)
(declare-fun fluent_started_i2_t2@1 () Bool)
(declare-fun fluent_treated_i0_t0@1 () Bool)
(declare-fun fluent_treated_i1_t0@1 () Bool)
(declare-fun fluent_treated_i2_t0@1 () Bool)
(declare-fun fluent_treated_i0_t1@1 () Bool)
(declare-fun fluent_treated_i1_t1@1 () Bool)
(declare-fun fluent_treated_i2_t1@1 () Bool)
(declare-fun fluent_treated_i0_t2@1 () Bool)
(declare-fun fluent_treated_i1_t2@1 () Bool)
(declare-fun fluent_treated_i2_t2@1 () Bool)
(declare-fun fluent_ready_i0_t0@1 () Bool)
(declare-fun fluent_ready_i1_t0@1 () Bool)
(assert (let ((.def_0 (<= fluent_counter_t0@1 31.0))) (let ((.def_1 (<= 0.0 fluent_counter_t0@1))) (let ((.def_2 (= parameter_make_treatment_next@1 5.0))) (let ((.def_3 (= parameter_make_treatment_next@1 4.0))) (let ((.def_4 (= parameter_make_treatment_next@1 3.0))) (let ((.def_5 (or .def_4 .def_3 .def_2))) (let ((.def_6 (= parameter_make_treatment_i@1 2.0))) (let ((.def_7 (= parameter_make_treatment_i@1 1.0))) (let ((.def_8 (= parameter_make_treatment_i@1 0.0))) (let ((.def_9 (or .def_8 .def_7 .def_6))) (let ((.def_10 (<= fluent_counter_t2@1 31.0))) (let ((.def_11 (<= 0.0 fluent_counter_t2@1))) (let ((.def_12 (= parameter_make_treatment_t@1 5.0))) (let ((.def_13 (= parameter_make_treatment_t@1 4.0))) (let ((.def_14 (= parameter_make_treatment_t@1 3.0))) (let ((.def_15 (or .def_14 .def_13 .def_12))) (let ((.def_16 (<= fluent_counter_t1@1 31.0))) (let ((.def_17 (<= 0.0 fluent_counter_t1@1))) (let ((.def_18 (and act_make_treatment@1 true .def_12))) (let ((.def_19 (= fluent_counter_t2@0 fluent_counter_t2@1))) (let ((.def_20 (not .def_19))) (let ((.def_21 (=> .def_20 .def_18))) (let ((.def_22 (and act_make_treatment@1 true .def_13))) (let ((.def_23 (= fluent_counter_t1@0 fluent_counter_t1@1))) (let ((.def_24 (not .def_23))) (let ((.def_25 (=> .def_24 .def_22))) (let ((.def_26 (and act_make_treatment@1 true .def_14))) (let ((.def_27 (= fluent_counter_t0@0 fluent_counter_t0@1))) (let ((.def_28 (not .def_27))) (let ((.def_29 (=> .def_28 .def_26))) (let ((.def_30 (+ t@1 10.0))) (let ((.def_31 (= t@1 .def_30))) (let ((.def_32 (and act_make_treatment@1 true .def_31 .def_6 .def_2))) (let ((.def_33 (= fluent_ready_i2_t2@0 fluent_ready_i2_t2@1))) (let ((.def_34 (not .def_33))) (let ((.def_35 (=> .def_34 .def_32))) (let ((.def_36 (and act_make_treatment@1 true .def_31 .def_7 .def_2))) (let ((.def_37 (= fluent_ready_i1_t2@0 fluent_ready_i1_t2@1))) (let ((.def_38 (not .def_37))) (let ((.def_39 (=> .def_38 .def_36))) (let ((.def_40 (and act_make_treatment@1 true .def_31 .def_8 .def_2))) (let ((.def_41 (= fluent_ready_i0_t2@0 fluent_ready_i0_t2@1))) (let ((.def_42 (not .def_41))) (let ((.def_43 (=> .def_42 .def_40))) (let ((.def_44 (and act_make_treatment@1 true .def_31 .def_6 .def_3))) (let ((.def_45 (= fluent_ready_i2_t1@0 fluent_ready_i2_t1@1))) (let ((.def_46 (not .def_45))) (let ((.def_47 (=> .def_46 .def_44))) (let ((.def_48 (and act_make_treatment@1 true .def_31 .def_7 .def_3))) (let ((.def_49 (= fluent_ready_i1_t1@0 fluent_ready_i1_t1@1))) (let ((.def_50 (not .def_49))) (let ((.def_51 (=> .def_50 .def_48))) (let ((.def_52 (and act_make_treatment@1 true .def_31 .def_8 .def_3))) (let ((.def_53 (= fluent_ready_i0_t1@0 fluent_ready_i0_t1@1))) (let ((.def_54 (not .def_53))) (let ((.def_55 (=> .def_54 .def_52))) (let ((.def_56 (and act_make_treatment@1 true .def_31 .def_6 .def_4))) (let ((.def_57 (= fluent_ready_i2_t0@0 fluent_ready_i2_t0@1))) (let ((.def_58 (not .def_57))) (let ((.def_59 (=> .def_58 .def_56))) (let ((.def_60 (and act_make_treatment@1 true .def_31 .def_7 .def_4))) (let ((.def_61 (= fluent_ready_i1_t0@0 fluent_ready_i1_t0@1))) (let ((.def_62 (not .def_61))) (let ((.def_63 (=> .def_62 .def_60))) (let ((.def_64 (and act_make_treatment@1 true .def_31 .def_8 .def_4))) (let ((.def_65 (= fluent_ready_i0_t0@0 fluent_ready_i0_t0@1))) (let ((.def_66 (not .def_65))) (let ((.def_67 (=> .def_66 .def_64))) (let ((.def_68 (and act_make_treatment@1 true .def_6 .def_12))) (let ((.def_69 (= fluent_started_i2_t2@0 fluent_started_i2_t2@1))) (let ((.def_70 (not .def_69))) (let ((.def_71 (=> .def_70 .def_68))) (let ((.def_72 (and act_make_treatment@1 true .def_7 .def_12))) (let ((.def_73 (= fluent_started_i1_t2@0 fluent_started_i1_t2@1))) (let ((.def_74 (not .def_73))) (let ((.def_75 (=> .def_74 .def_72))) (let ((.def_76 (and act_make_treatment@1 true .def_8 .def_12))) (let ((.def_77 (= fluent_started_i0_t2@0 fluent_started_i0_t2@1))) (let ((.def_78 (not .def_77))) (let ((.def_79 (=> .def_78 .def_76))) (let ((.def_80 (and act_make_treatment@1 true .def_6 .def_13))) (let ((.def_81 (= fluent_started_i2_t1@0 fluent_started_i2_t1@1))) (let ((.def_82 (not .def_81))) (let ((.def_83 (=> .def_82 .def_80))) (let ((.def_84 (and act_make_treatment@1 true .def_7 .def_13))) (let ((.def_85 (= fluent_started_i1_t1@0 fluent_started_i1_t1@1))) (let ((.def_86 (not .def_85))) (let ((.def_87 (=> .def_86 .def_84))) (let ((.def_88 (and act_make_treatment@1 true .def_8 .def_13))) (let ((.def_89 (= fluent_started_i0_t1@0 fluent_started_i0_t1@1))) (let ((.def_90 (not .def_89))) (let ((.def_91 (=> .def_90 .def_88))) (let ((.def_92 (and act_make_treatment@1 true .def_6 .def_14))) (let ((.def_93 (= fluent_started_i2_t0@0 fluent_started_i2_t0@1))) (let ((.def_94 (not .def_93))) (let ((.def_95 (=> .def_94 .def_92))) (let ((.def_96 (and act_make_treatment@1 true .def_7 .def_14))) (let ((.def_97 (= fluent_started_i1_t0@0 fluent_started_i1_t0@1))) (let ((.def_98 (not .def_97))) (let ((.def_99 (=> .def_98 .def_96))) (let ((.def_100 (and act_make_treatment@1 true .def_8 .def_14))) (let ((.def_101 (= fluent_started_i0_t0@0 fluent_started_i0_t0@1))) (let ((.def_102 (not .def_101))) (let ((.def_103 (=> .def_102 .def_100))) (let ((.def_104 (+ t@1 4.0))) (let ((.def_105 (= t@1 .def_104))) (let ((.def_106 (and act_make_treatment@1 true .def_105 .def_6 .def_12))) (let ((.def_107 (= fluent_treated_i2_t2@0 fluent_treated_i2_t2@1))) (let ((.def_108 (not .def_107))) (let ((.def_109 (=> .def_108 .def_106))) (let ((.def_110 (and act_make_treatment@1 true .def_105 .def_7 .def_12))) (let ((.def_111 (= fluent_treated_i1_t2@0 fluent_treated_i1_t2@1))) (let ((.def_112 (not .def_111))) (let ((.def_113 (=> .def_112 .def_110))) (let ((.def_114 (and act_make_treatment@1 true .def_105 .def_8 .def_12))) (let ((.def_115 (= fluent_treated_i0_t2@0 fluent_treated_i0_t2@1))) (let ((.def_116 (not .def_115))) (let ((.def_117 (=> .def_116 .def_114))) (let ((.def_118 (and act_make_treatment@1 true .def_105 .def_6 .def_13))) (let ((.def_119 (= fluent_treated_i2_t1@0 fluent_treated_i2_t1@1))) (let ((.def_120 (not .def_119))) (let ((.def_121 (=> .def_120 .def_118))) (let ((.def_122 (and act_make_treatment@1 true .def_105 .def_7 .def_13))) (let ((.def_123 (= fluent_treated_i1_t1@0 fluent_treated_i1_t1@1))) (let ((.def_124 (not .def_123))) (let ((.def_125 (=> .def_124 .def_122))) (let ((.def_126 (and act_make_treatment@1 true .def_105 .def_8 .def_13))) (let ((.def_127 (= fluent_treated_i0_t1@0 fluent_treated_i0_t1@1))) (let ((.def_128 (not .def_127))) (let ((.def_129 (=> .def_128 .def_126))) (let ((.def_130 (and act_make_treatment@1 true .def_105 .def_6 .def_14))) (let ((.def_131 (= fluent_treated_i2_t0@0 fluent_treated_i2_t0@1))) (let ((.def_132 (not .def_131))) (let ((.def_133 (=> .def_132 .def_130))) (let ((.def_134 (and act_make_treatment@1 true .def_105 .def_7 .def_14))) (let ((.def_135 (= fluent_treated_i1_t0@0 fluent_treated_i1_t0@1))) (let ((.def_136 (not .def_135))) (let ((.def_137 (=> .def_136 .def_134))) (let ((.def_138 (and act_make_treatment@1 true .def_105 .def_8 .def_14))) (let ((.def_139 (= fluent_treated_i0_t0@0 fluent_treated_i0_t0@1))) (let ((.def_140 (not .def_139))) (let ((.def_141 (=> .def_140 .def_138))) (let ((.def_142 (and act_make_treatment@1 true .def_105))) (let ((.def_143 (and act_make_treatment@1 true))) (let ((.def_144 (and .def_143 .def_142))) (let ((.def_145 (not .def_144))) (let ((.def_146 (or .def_143 .def_142))) (let ((.def_147 (= fluent_busy_@0 fluent_busy_@1))) (let ((.def_148 (not .def_147))) (let ((.def_149 (=> .def_148 .def_146))) (let ((.def_150 (and .def_149 .def_145 .def_141 .def_137 .def_133 .def_129 .def_125 .def_121 .def_117 .def_113 .def_109 .def_103 .def_99 .def_95 .def_91 .def_87 .def_83 .def_79 .def_75 .def_71 .def_67 .def_63 .def_59 .def_55 .def_51 .def_47 .def_43 .def_39 .def_35 .def_29 .def_25 .def_21))) (let ((.def_151 (<= 0.0 t@1))) (let ((.def_152 (and .def_7 .def_4))) (let ((.def_153 (ite .def_152 fluent_ready_i1_t0@1 fluent_ready_i0_t0@1))) (let ((.def_154 (and .def_6 .def_4))) (let ((.def_155 (ite .def_154 fluent_ready_i2_t0@1 .def_153))) (let ((.def_156 (and .def_8 .def_3))) (let ((.def_157 (ite .def_156 fluent_ready_i0_t1@1 .def_155))) (let ((.def_158 (and .def_7 .def_3))) (let ((.def_159 (ite .def_158 fluent_ready_i1_t1@1 .def_157))) (let ((.def_160 (and .def_6 .def_3))) (let ((.def_161 (ite .def_160 fluent_ready_i2_t1@1 .def_159))) (let ((.def_162 (and .def_8 .def_2))) (let ((.def_163 (ite .def_162 fluent_ready_i0_t2@1 .def_161))) (let ((.def_164 (and .def_7 .def_2))) (let ((.def_165 (ite .def_164 fluent_ready_i1_t2@1 .def_163))) (let ((.def_166 (and .def_6 .def_2))) (let ((.def_167 (ite .def_166 fluent_ready_i2_t2@1 .def_165))) (let ((.def_168 (= .def_167 true))) (let ((.def_169 (=> true .def_168))) (let ((.def_170 (and .def_31 .def_169))) (let ((.def_171 (= fluent_busy_@1 false))) (let ((.def_172 (=> true .def_171))) (let ((.def_173 (and .def_7 .def_14))) (let ((.def_174 (ite .def_173 fluent_treated_i1_t0@1 fluent_treated_i0_t0@1))) (let ((.def_175 (and .def_6 .def_14))) (let ((.def_176 (ite .def_175 fluent_treated_i2_t0@1 .def_174))) (let ((.def_177 (and .def_8 .def_13))) (let ((.def_178 (ite .def_177 fluent_treated_i0_t1@1 .def_176))) (let ((.def_179 (and .def_7 .def_13))) (let ((.def_180 (ite .def_179 fluent_treated_i1_t1@1 .def_178))) (let ((.def_181 (and .def_6 .def_13))) (let ((.def_182 (ite .def_181 fluent_treated_i2_t1@1 .def_180))) (let ((.def_183 (and .def_8 .def_12))) (let ((.def_184 (ite .def_183 fluent_treated_i0_t2@1 .def_182))) (let ((.def_185 (and .def_7 .def_12))) (let ((.def_186 (ite .def_185 fluent_treated_i1_t2@1 .def_184))) (let ((.def_187 (and .def_6 .def_12))) (let ((.def_188 (ite .def_187 fluent_treated_i2_t2@1 .def_186))) (let ((.def_189 (= .def_188 true))) (let ((.def_190 (=> true .def_189))) (let ((.def_191 (and .def_105 .def_190 .def_172))) (let ((.def_192 (ite .def_173 fluent_started_i1_t0@1 fluent_started_i0_t0@1))) (let ((.def_193 (ite .def_175 fluent_started_i2_t0@1 .def_192))) (let ((.def_194 (ite .def_177 fluent_started_i0_t1@1 .def_193))) (let ((.def_195 (ite .def_179 fluent_started_i1_t1@1 .def_194))) (let ((.def_196 (ite .def_181 fluent_started_i2_t1@1 .def_195))) (let ((.def_197 (ite .def_183 fluent_started_i0_t2@1 .def_196))) (let ((.def_198 (ite .def_185 fluent_started_i1_t2@1 .def_197))) (let ((.def_199 (ite .def_187 fluent_started_i2_t2@1 .def_198))) (let ((.def_200 (= .def_199 true))) (let ((.def_201 (=> true .def_200))) (let ((.def_202 (= fluent_busy_@1 true))) (let ((.def_203 (=> true .def_202))) (let ((.def_204 (ite .def_13 fluent_counter_t1@0 fluent_counter_t0@0))) (let ((.def_205 (ite .def_12 fluent_counter_t2@0 .def_204))) (let ((.def_206 (+ .def_205 1.0))) (let ((.def_207 (ite .def_13 fluent_counter_t1@1 fluent_counter_t0@1))) (let ((.def_208 (ite .def_12 fluent_counter_t2@1 .def_207))) (let ((.def_209 (= .def_208 .def_206))) (let ((.def_210 (=> true .def_209))) (let ((.def_211 (= t@1 t@1))) (let ((.def_212 (and .def_211 .def_210 .def_203 .def_201))) (let ((.def_213 (ite .def_152 fluent_started_i1_t0@0 fluent_started_i0_t0@0))) (let ((.def_214 (ite .def_154 fluent_started_i2_t0@0 .def_213))) (let ((.def_215 (ite .def_156 fluent_started_i0_t1@0 .def_214))) (let ((.def_216 (ite .def_158 fluent_started_i1_t1@0 .def_215))) (let ((.def_217 (ite .def_160 fluent_started_i2_t1@0 .def_216))) (let ((.def_218 (ite .def_162 fluent_started_i0_t2@0 .def_217))) (let ((.def_219 (ite .def_164 fluent_started_i1_t2@0 .def_218))) (let ((.def_220 (ite .def_166 fluent_started_i2_t2@0 .def_219))) (let ((.def_221 (+ t@1 dur_make_treatment@1))) (let ((.def_222 (<= .def_221 t@1))) (let ((.def_223 (< (- 1.0) .def_221))) (let ((.def_224 (and .def_223 .def_222))) (let ((.def_225 (=> .def_224 .def_220))) (let ((.def_226 (ite .def_173 fluent_ready_i1_t0@0 fluent_ready_i0_t0@0))) (let ((.def_227 (ite .def_175 fluent_ready_i2_t0@0 .def_226))) (let ((.def_228 (ite .def_177 fluent_ready_i0_t1@0 .def_227))) (let ((.def_229 (ite .def_179 fluent_ready_i1_t1@0 .def_228))) (let ((.def_230 (ite .def_181 fluent_ready_i2_t1@0 .def_229))) (let ((.def_231 (ite .def_183 fluent_ready_i0_t2@0 .def_230))) (let ((.def_232 (ite .def_185 fluent_ready_i1_t2@0 .def_231))) (let ((.def_233 (ite .def_187 fluent_ready_i2_t2@0 .def_232))) (let ((.def_234 (ite .def_173 fluent_started_i1_t0@0 fluent_started_i0_t0@0))) (let ((.def_235 (ite .def_175 fluent_started_i2_t0@0 .def_234))) (let ((.def_236 (ite .def_177 fluent_started_i0_t1@0 .def_235))) (let ((.def_237 (ite .def_179 fluent_started_i1_t1@0 .def_236))) (let ((.def_238 (ite .def_181 fluent_started_i2_t1@0 .def_237))) (let ((.def_239 (ite .def_183 fluent_started_i0_t2@0 .def_238))) (let ((.def_240 (ite .def_185 fluent_started_i1_t2@0 .def_239))) (let ((.def_241 (ite .def_187 fluent_started_i2_t2@0 .def_240))) (let ((.def_242 (not .def_241))) (let ((.def_243 (ite .def_173 fluent_treated_i1_t0@0 fluent_treated_i0_t0@0))) (let ((.def_244 (ite .def_175 fluent_treated_i2_t0@0 .def_243))) (let ((.def_245 (ite .def_177 fluent_treated_i0_t1@0 .def_244))) (let ((.def_246 (ite .def_179 fluent_treated_i1_t1@0 .def_245))) (let ((.def_247 (ite .def_181 fluent_treated_i2_t1@0 .def_246))) (let ((.def_248 (ite .def_183 fluent_treated_i0_t2@0 .def_247))) (let ((.def_249 (ite .def_185 fluent_treated_i1_t2@0 .def_248))) (let ((.def_250 (ite .def_187 fluent_treated_i2_t2@0 .def_249))) (let ((.def_251 (not .def_250))) (let ((.def_252 (not fluent_busy_@0))) (let ((.def_253 (and .def_13 .def_4))) (let ((.def_254 (ite .def_253 false false))) (let ((.def_255 (and .def_12 .def_4))) (let ((.def_256 (ite .def_255 false .def_254))) (let ((.def_257 (and .def_14 .def_3))) (let ((.def_258 (ite .def_257 true .def_256))) (let ((.def_259 (and .def_13 .def_3))) (let ((.def_260 (ite .def_259 false .def_258))) (let ((.def_261 (and .def_12 .def_3))) (let ((.def_262 (ite .def_261 false .def_260))) (let ((.def_263 (and .def_14 .def_2))) (let ((.def_264 (ite .def_263 false .def_262))) (let ((.def_265 (and .def_13 .def_2))) (let ((.def_266 (ite .def_265 true .def_264))) (let ((.def_267 (and .def_12 .def_2))) (let ((.def_268 (ite .def_267 false .def_266))) (let ((.def_269 (ite .def_7 1.0 0.0))) (let ((.def_270 (ite .def_6 2.0 .def_269))) (let ((.def_271 (= .def_270 .def_205))) (let ((.def_272 (and .def_271 .def_268 .def_252 .def_251 .def_242 .def_233))) (let ((.def_273 (<= t@1 t@1))) (let ((.def_274 (< (- 1.0) t@1))) (let ((.def_275 (and .def_274 .def_273))) (let ((.def_276 (=> .def_275 .def_272))) (let ((.def_277 (<= dur_make_treatment@1 15.0))) (let ((.def_278 (<= 15.0 dur_make_treatment@1))) (let ((.def_279 (and .def_278 .def_277))) (let ((.def_280 (and .def_279 .def_222 .def_276 .def_225 .def_212 .def_191 .def_170))) (let ((.def_281 (=> act_make_treatment@1 .def_280))) (let ((.def_282 (<= fluent_counter_t2@0 31.0))) (let ((.def_283 (<= 0.0 fluent_counter_t2@0))) (let ((.def_284 (<= fluent_counter_t1@0 31.0))) (let ((.def_285 (<= 0.0 fluent_counter_t1@0))) (let ((.def_286 (<= fluent_counter_t0@0 31.0))) (let ((.def_287 (<= 0.0 fluent_counter_t0@0))) (let ((.def_288 (= fluent_counter_t2@0 0.0))) (let ((.def_289 (= fluent_counter_t1@0 0.0))) (let ((.def_290 (= fluent_counter_t0@0 0.0))) (let ((.def_291 (= false false))) (let ((.def_292 (= fluent_ready_i2_t2@0 false))) (let ((.def_293 (= fluent_ready_i1_t2@0 false))) (let ((.def_294 (= fluent_ready_i0_t2@0 false))) (let ((.def_295 (= fluent_ready_i2_t1@0 false))) (let ((.def_296 (= fluent_ready_i1_t1@0 false))) (let ((.def_297 (= fluent_ready_i0_t1@0 false))) (let ((.def_298 (= fluent_started_i2_t1@0 false))) (let ((.def_299 (= fluent_started_i1_t1@0 false))) (let ((.def_300 (= fluent_started_i0_t1@0 false))) (let ((.def_301 (= fluent_started_i2_t0@0 false))) (let ((.def_302 (= fluent_started_i1_t0@0 false))) (let ((.def_303 (= fluent_started_i0_t0@0 false))) (let ((.def_304 (= fluent_treated_i2_t2@0 false))) (let ((.def_305 (= fluent_treated_i1_t2@0 false))) (let ((.def_306 (= fluent_treated_i0_t2@0 false))) (let ((.def_307 (= fluent_treated_i2_t1@0 false))) (let ((.def_308 (= fluent_treated_i1_t1@0 false))) (let ((.def_309 (= fluent_treated_i0_t1@0 false))) (let ((.def_310 (= fluent_treated_i2_t0@0 false))) (let ((.def_311 (= fluent_treated_i1_t0@0 false))) (let ((.def_312 (= fluent_treated_i0_t0@0 false))) (let ((.def_313 (= fluent_busy_@0 false))) (let ((.def_314 (= fluent_ready_i2_t0@0 true))) (let ((.def_315 (= fluent_started_i2_t2@0 true))) (let ((.def_316 (= fluent_ready_i1_t0@0 true))) (let ((.def_317 (= fluent_started_i1_t2@0 true))) (let ((.def_318 (= fluent_ready_i0_t0@0 true))) (let ((.def_319 (= fluent_started_i0_t2@0 true))) (let ((.def_320 (= true true))) (let ((.def_321 (= 2.0 2.0))) (let ((.def_322 (= 1.0 1.0))) (let ((.def_323 (= 0.0 0.0))) (let ((.def_324 (and .def_323 .def_322 .def_321 .def_320 .def_320 .def_319 .def_318 .def_317 .def_316 .def_315 .def_314 .def_313 .def_312 .def_311 .def_310 .def_309 .def_308 .def_307 .def_306 .def_305 .def_304 .def_303 .def_302 .def_301 .def_300 .def_299 .def_298 .def_297 .def_296 .def_295 .def_294 .def_293 .def_292 .def_291 .def_291 .def_291 .def_291 .def_291 .def_291 .def_291 .def_290 .def_289 .def_288 .def_287 .def_286 .def_285 .def_284 .def_283 .def_282))) (let ((.def_325 (and .def_324 .def_281 .def_151 true true .def_150 .def_17 .def_16 .def_15 .def_11 .def_10 .def_9 .def_5 .def_1 .def_0 true))) .def_325)))))))))))))))))))))))))))))))))))))))))))))))))))))))))))))))))))))))))))))))))))))))))))))))))))))))))))))))))))))))))))))))))))))))))))))))))))))))))))))))))))))))))))))))))))))))))))))))))))))))))))))))))))))))))))))))))))))))))))))))))))))))))))))))))))))))))))))))))))))))))))))))))))))))))))))))))))))))))))))))))))))))
(check-sat)
